(set-info :smt-lib-version 2.6)
(set-logic UF)
(set-info :source |Benchmarks from the paper: "Extending Sledgehammer with SMT Solvers" by Jasmin Blanchette, Sascha Bohme, and Lawrence C. Paulson, CADE 2011.  Translated to SMT2 by Andrew Reynolds and Morgan Deters.|)
(set-info :category "industrial")
(set-info :status unknown)
(declare-sort S1 0)
(declare-sort S2 0)
(declare-sort S3 0)
(declare-sort S4 0)
(declare-fun f1 () S1)
(declare-fun f2 () S1)
(declare-fun f3 (S2 S2) S1)
(declare-fun f4 () S2)
(declare-fun f5 (S2 S2) S1)
(declare-fun f6 (S3 S2) S2)
(declare-fun f7 (S4 S2) S3)
(declare-fun f8 () S4)
(declare-fun f9 () S4)
(declare-fun f10 () S3)
(declare-fun f11 () S3)
(declare-fun f12 () S3)
(declare-fun f13 () S2)
(declare-fun f14 () S2)
(declare-fun f15 () S2)
(declare-fun f16 (S2 S2 S2) S1)
(declare-fun f17 () S2)
(declare-fun f18 (S2) S1)
(assert (not (= f1 f2)))
(assert (not (exists ((?v0 S2)) (let ((?v_0 (f6 (f7 f8 (f6 (f7 f9 (f6 f10 (f6 f11 (f6 f11 (f6 f12 f13))))) f14)) f15))) (and (and (= (f3 f4 ?v0) f1) (and (= (f5 ?v0 ?v_0) f1) (= (f16 f17 ?v0 ?v_0) f1))) (forall ((?v1 S2)) (=> (and (= (f3 f4 ?v1) f1) (and (= (f5 ?v1 ?v_0) f1) (= (f16 f17 ?v1 ?v_0) f1))) (= ?v1 ?v0))))))))
(assert (= (f5 f4 (f6 (f7 f8 (f6 (f7 f9 (f6 f10 (f6 f11 (f6 f11 (f6 f12 f13))))) f14)) f15)) f1))
(assert (= (f5 f4 (f6 (f7 f8 (f6 (f7 f9 (f6 f10 (f6 f11 (f6 f11 (f6 f12 f13))))) f14)) f15)) f1))
(assert (= (f18 (f6 (f7 f8 (f6 (f7 f9 (f6 f10 (f6 f11 (f6 f11 (f6 f12 f13))))) f14)) f15)) f1))
(assert (forall ((?v0 S2)) (=> (= (f3 f4 ?v0) f1) (=> (= (f5 ?v0 (f6 f10 (f6 f11 (f6 f12 f13)))) f1) (or (= ?v0 f4) (= ?v0 f15))))))
(assert (forall ((?v0 S2) (?v1 S2) (?v2 S2)) (=> (= (f5 f4 ?v0) f1) (=> (= ?v0 (f6 (f7 f8 ?v1) (f6 (f7 f9 ?v0) ?v2))) (=> (= (f3 f4 ?v1) f1) (= (f3 ?v2 f15) f1))))))
(assert (forall ((?v0 S2) (?v1 S2) (?v2 S2)) (=> (= (f5 f4 ?v0) f1) (=> (= ?v0 (f6 (f7 f8 ?v1) (f6 (f7 f9 ?v0) ?v2))) (=> (= (f5 ?v1 ?v0) f1) (= (f3 f15 ?v2) f1))))))
(assert (= (f3 f4 (f6 f10 (f6 f11 (f6 f12 f13)))) f1))
(assert (forall ((?v0 S2)) (= (f6 (f7 f8 f15) (f6 f10 ?v0)) (f6 f10 (f6 (f7 f8 (f6 f12 f13)) ?v0)))))
(assert (forall ((?v0 S2)) (= (f6 (f7 f8 (f6 f10 ?v0)) f15) (f6 f10 (f6 (f7 f8 ?v0) (f6 f12 f13))))))
(assert (forall ((?v0 S2)) (= (= (f3 f15 (f6 f10 ?v0)) f1) (= (f3 (f6 f12 f13) ?v0) f1))))
(assert (forall ((?v0 S2)) (= (= (f3 (f6 f10 ?v0) f15) f1) (= (f3 ?v0 (f6 f12 f13)) f1))))
(assert (forall ((?v0 S2)) (= (= (f5 f15 (f6 f10 ?v0)) f1) (= (f5 (f6 f12 f13) ?v0) f1))))
(assert (forall ((?v0 S2)) (= (= (f5 (f6 f10 ?v0) f15) f1) (= (f5 ?v0 (f6 f12 f13)) f1))))
(assert (= (f6 (f7 f8 f15) f15) (f6 f10 (f6 f11 (f6 f12 f13)))))
(assert (= (f6 (f7 f8 f15) f15) (f6 f10 (f6 f11 (f6 f12 f13)))))
(assert (forall ((?v0 S2) (?v1 S2)) (= (= (f6 f10 ?v0) (f6 f10 ?v1)) (= ?v0 ?v1))))
(assert (forall ((?v0 S2) (?v1 S2)) (let ((?v_0 (f6 f10 ?v0))) (= (= ?v_0 ?v1) (= ?v1 ?v_0)))))
(assert (forall ((?v0 S2) (?v1 S2)) (= (= (f6 f12 ?v0) (f6 f12 ?v1)) (= ?v0 ?v1))))
(assert (= (= f13 f13) true))
(assert (forall ((?v0 S2) (?v1 S2)) (= (= (f6 f11 ?v0) (f6 f11 ?v1)) (= ?v0 ?v1))))
(assert (forall ((?v0 S2) (?v1 S2)) (or (= (f5 ?v0 ?v1) f1) (or (= ?v0 ?v1) (= (f5 ?v1 ?v0) f1)))))
(assert (forall ((?v0 S2) (?v1 S2)) (=> (= (f3 ?v0 ?v1) f1) (=> (= (f3 ?v1 ?v0) f1) (= ?v0 ?v1)))))
(assert (forall ((?v0 S2) (?v1 S2) (?v2 S2)) (=> (= (f3 ?v0 ?v1) f1) (=> (= (f3 ?v1 ?v2) f1) (= (f3 ?v0 ?v2) f1)))))
(assert (forall ((?v0 S2) (?v1 S2)) (or (= (f3 ?v0 ?v1) f1) (= (f3 ?v1 ?v0) f1))))
(assert (forall ((?v0 S2)) (= (f3 ?v0 ?v0) f1)))
(assert (forall ((?v0 S2) (?v1 S2) (?v2 S2)) (let ((?v_0 (f7 f9 ?v0))) (= (f6 (f7 f9 (f6 ?v_0 ?v1)) ?v2) (f6 ?v_0 (f6 (f7 f9 ?v1) ?v2))))))
(assert (forall ((?v0 S2) (?v1 S2)) (= (f6 (f7 f9 ?v0) ?v1) (f6 (f7 f9 ?v1) ?v0))))
(assert (forall ((?v0 S2)) (= (f6 f10 ?v0) ?v0)))
(assert (forall ((?v0 S2) (?v1 S2) (?v2 S2)) (let ((?v_0 (f7 f8 ?v0))) (= (f6 (f7 f8 (f6 ?v_0 ?v1)) ?v2) (f6 ?v_0 (f6 (f7 f8 ?v1) ?v2))))))
(assert (forall ((?v0 S2) (?v1 S2) (?v2 S2)) (let ((?v_1 (f7 f8 ?v0)) (?v_0 (f7 f8 ?v1))) (= (f6 ?v_1 (f6 ?v_0 ?v2)) (f6 ?v_0 (f6 ?v_1 ?v2))))))
(assert (forall ((?v0 S2) (?v1 S2)) (= (f6 (f7 f8 ?v0) ?v1) (f6 (f7 f8 ?v1) ?v0))))
(assert (forall ((?v0 S2)) (= (= (f6 (f7 f8 ?v0) ?v0) f4) (= ?v0 f4))))
(assert (forall ((?v0 S2)) (= (= (f6 f12 ?v0) f13) false)))
(assert (forall ((?v0 S2)) (= (= f13 (f6 f12 ?v0)) false)))
(assert (forall ((?v0 S2) (?v1 S2)) (= (= (f6 f12 ?v0) (f6 f11 ?v1)) false)))
(assert (forall ((?v0 S2) (?v1 S2)) (= (= (f6 f11 ?v0) (f6 f12 ?v1)) false)))
(assert (= f13 f4))
(assert (forall ((?v0 S2)) (= (= (f6 f11 ?v0) f13) (= ?v0 f13))))
(assert (forall ((?v0 S2)) (= (= f13 (f6 f11 ?v0)) (= f13 ?v0))))
(assert (= (f6 f11 f13) f13))
(assert (forall ((?v0 S2) (?v1 S2)) (= (= (f5 (f6 f12 ?v0) (f6 f12 ?v1)) f1) (= (f5 ?v0 ?v1) f1))))
(assert (forall ((?v0 S2) (?v1 S2)) (= (= (f5 (f6 f12 ?v0) (f6 f12 ?v1)) f1) (= (f5 ?v0 ?v1) f1))))
(assert (= (= (f5 f13 f13) f1) false))
(assert (forall ((?v0 S2) (?v1 S2)) (= (= (f5 (f6 f11 ?v0) (f6 f11 ?v1)) f1) (= (f5 ?v0 ?v1) f1))))
(assert (forall ((?v0 S2) (?v1 S2)) (= (= (f5 (f6 f11 ?v0) (f6 f11 ?v1)) f1) (= (f5 ?v0 ?v1) f1))))
(assert (forall ((?v0 S2) (?v1 S2)) (= (= (f3 (f6 f12 ?v0) (f6 f12 ?v1)) f1) (= (f3 ?v0 ?v1) f1))))
(assert (forall ((?v0 S2) (?v1 S2)) (= (= (f3 (f6 f12 ?v0) (f6 f12 ?v1)) f1) (= (f3 ?v0 ?v1) f1))))
(assert (= (= (f3 f13 f13) f1) true))
(assert (= (f3 f4 f4) f1))
(assert (forall ((?v0 S2) (?v1 S2)) (= (= (f3 (f6 f11 ?v0) (f6 f11 ?v1)) f1) (= (f3 ?v0 ?v1) f1))))
(assert (forall ((?v0 S2) (?v1 S2)) (= (= (f3 (f6 f11 ?v0) (f6 f11 ?v1)) f1) (= (f3 ?v0 ?v1) f1))))
(assert (not (= f4 f15)))
(assert (forall ((?v0 S2)) (= (f6 (f7 f9 f13) ?v0) f13)))
(assert (forall ((?v0 S2) (?v1 S2)) (= (f6 (f7 f9 (f6 f11 ?v0)) ?v1) (f6 f11 (f6 (f7 f9 ?v0) ?v1)))))
(assert (forall ((?v0 S2) (?v1 S2)) (= (= (f5 ?v0 ?v1) f1) (and (= (f3 ?v0 ?v1) f1) (not (= ?v0 ?v1))))))
(assert (forall ((?v0 S2)) (= (f6 (f7 f8 ?v0) f13) ?v0)))
(assert (forall ((?v0 S2)) (= (f6 (f7 f8 f13) ?v0) ?v0)))
(assert (forall ((?v0 S2)) (= (f6 (f7 f8 ?v0) f4) ?v0)))
(assert (forall ((?v0 S2)) (= (f6 (f7 f8 f4) ?v0) ?v0)))
(assert (forall ((?v0 S2) (?v1 S2)) (= (f6 (f7 f8 (f6 f11 ?v0)) (f6 f11 ?v1)) (f6 f11 (f6 (f7 f8 ?v0) ?v1)))))
(assert (forall ((?v0 S2)) (= (f6 f11 ?v0) (f6 (f7 f8 ?v0) ?v0))))
(assert (forall ((?v0 S2) (?v1 S2)) (= (= (f5 (f6 f10 ?v0) (f6 f10 ?v1)) f1) (= (f5 ?v0 ?v1) f1))))
(assert (forall ((?v0 S2)) (= (f6 (f7 f9 ?v0) f15) ?v0)))
(assert (forall ((?v0 S2)) (= (f6 (f7 f9 f15) ?v0) ?v0)))
(assert (forall ((?v0 S2) (?v1 S2)) (= (= (f3 (f6 f10 ?v0) (f6 f10 ?v1)) f1) (= (f3 ?v0 ?v1) f1))))
(assert (forall ((?v0 S2) (?v1 S2) (?v2 S2)) (=> (= (f5 ?v0 ?v1) f1) (= (f5 (f6 (f7 f8 ?v0) ?v2) (f6 (f7 f8 ?v1) ?v2)) f1))))
(assert (forall ((?v0 S2) (?v1 S2)) (= (f6 (f7 f9 (f6 f10 ?v0)) (f6 f10 ?v1)) (f6 f10 (f6 (f7 f9 ?v0) ?v1)))))
(assert (forall ((?v0 S2) (?v1 S2) (?v2 S2)) (let ((?v_0 (f7 f8 ?v2))) (=> (= (f3 ?v0 ?v1) f1) (= (f3 (f6 ?v_0 ?v0) (f6 ?v_0 ?v1)) f1)))))
(assert (forall ((?v0 S2) (?v1 S2) (?v2 S2)) (= (f6 (f7 f9 (f6 (f7 f8 ?v0) ?v1)) ?v2) (f6 (f7 f8 (f6 (f7 f9 ?v0) ?v2)) (f6 (f7 f9 ?v1) ?v2)))))
(assert (forall ((?v0 S2) (?v1 S2) (?v2 S2)) (let ((?v_0 (f7 f9 ?v0))) (= (f6 ?v_0 (f6 (f7 f8 ?v1) ?v2)) (f6 (f7 f8 (f6 ?v_0 ?v1)) (f6 ?v_0 ?v2))))))
(assert (forall ((?v0 S2) (?v1 S2)) (= (f6 (f7 f8 (f6 f10 ?v0)) (f6 f10 ?v1)) (f6 f10 (f6 (f7 f8 ?v0) ?v1)))))
(assert (forall ((?v0 S2)) (= (= (f5 (f6 (f7 f8 ?v0) ?v0) f4) f1) (= (f5 ?v0 f4) f1))))
(assert (forall ((?v0 S2) (?v1 S2)) (let ((?v_1 (f6 f10 ?v0)) (?v_0 (f6 f10 ?v1))) (= (= (f3 ?v_1 ?v_0) f1) (not (= (f5 ?v_0 ?v_1) f1))))))
(assert (forall ((?v0 S2) (?v1 S2) (?v2 S2)) (let ((?v_0 (f6 f10 ?v2))) (= (f6 (f7 f9 (f6 (f7 f8 ?v0) ?v1)) ?v_0) (f6 (f7 f8 (f6 (f7 f9 ?v0) ?v_0)) (f6 (f7 f9 ?v1) ?v_0))))))
(assert (forall ((?v0 S2) (?v1 S2) (?v2 S2)) (let ((?v_0 (f7 f9 (f6 f10 ?v0)))) (= (f6 ?v_0 (f6 (f7 f8 ?v1) ?v2)) (f6 (f7 f8 (f6 ?v_0 ?v1)) (f6 ?v_0 ?v2))))))
(assert (= (f6 f10 f13) f4))
(assert (= (f6 f10 f13) f4))
(assert (forall ((?v0 S2)) (= (f6 (f7 f8 (f6 f10 f13)) ?v0) ?v0)))
(assert (forall ((?v0 S2)) (= (f6 (f7 f8 ?v0) (f6 f10 f13)) ?v0)))
(assert (forall ((?v0 S2) (?v1 S2)) (= (= (f5 (f6 f10 ?v0) (f6 f10 ?v1)) f1) (= (f5 ?v0 ?v1) f1))))
(assert (forall ((?v0 S2) (?v1 S2)) (= (= (f3 (f6 f10 ?v0) (f6 f10 ?v1)) f1) (= (f3 ?v0 ?v1) f1))))
(assert (forall ((?v0 S2) (?v1 S2) (?v2 S2)) (= (f6 (f7 f9 (f6 f10 ?v0)) (f6 (f7 f9 (f6 f10 ?v1)) ?v2)) (f6 (f7 f9 (f6 f10 (f6 (f7 f9 ?v0) ?v1))) ?v2))))
(assert (forall ((?v0 S2) (?v1 S2)) (= (f6 (f7 f9 (f6 f10 ?v0)) (f6 f10 ?v1)) (f6 f10 (f6 (f7 f9 ?v0) ?v1)))))
(assert (forall ((?v0 S2) (?v1 S2)) (= (f6 f10 (f6 (f7 f9 ?v0) ?v1)) (f6 (f7 f9 (f6 f10 ?v0)) (f6 f10 ?v1)))))
(assert (forall ((?v0 S2) (?v1 S2) (?v2 S2)) (= (f6 (f7 f8 (f6 f10 ?v0)) (f6 (f7 f8 (f6 f10 ?v1)) ?v2)) (f6 (f7 f8 (f6 f10 (f6 (f7 f8 ?v0) ?v1))) ?v2))))
(assert (forall ((?v0 S2) (?v1 S2)) (= (f6 (f7 f8 (f6 f10 ?v0)) (f6 f10 ?v1)) (f6 f10 (f6 (f7 f8 ?v0) ?v1)))))
(assert (forall ((?v0 S2) (?v1 S2)) (= (f6 f10 (f6 (f7 f8 ?v0) ?v1)) (f6 (f7 f8 (f6 f10 ?v0)) (f6 f10 ?v1)))))
(assert (forall ((?v0 S2)) (= (= (f5 (f6 f12 ?v0) f13) f1) (= (f5 ?v0 f13) f1))))
(assert (forall ((?v0 S2)) (= (= (f5 (f6 f12 ?v0) f4) f1) (= (f5 ?v0 f4) f1))))
(assert (forall ((?v0 S2) (?v1 S2)) (= (= (f5 (f6 f12 ?v0) (f6 f11 ?v1)) f1) (= (f5 ?v0 ?v1) f1))))
(assert (forall ((?v0 S2) (?v1 S2)) (= (= (f5 (f6 f12 ?v0) (f6 f11 ?v1)) f1) (= (f5 ?v0 ?v1) f1))))
(assert (= (= (f5 f13 f4) f1) false))
(assert (forall ((?v0 S2)) (= (= (f5 (f6 f11 ?v0) f13) f1) (= (f5 ?v0 f13) f1))))
(assert (forall ((?v0 S2)) (= (= (f5 f13 (f6 f11 ?v0)) f1) (= (f5 f13 ?v0) f1))))
(assert (forall ((?v0 S2)) (= (= (f5 (f6 f11 ?v0) f4) f1) (= (f5 ?v0 f4) f1))))
(assert (forall ((?v0 S2)) (= (= (f3 f13 (f6 f12 ?v0)) f1) (= (f3 f13 ?v0) f1))))
(assert (forall ((?v0 S2) (?v1 S2)) (= (= (f3 (f6 f11 ?v0) (f6 f12 ?v1)) f1) (= (f3 ?v0 ?v1) f1))))
(assert (forall ((?v0 S2) (?v1 S2)) (= (= (f3 (f6 f11 ?v0) (f6 f12 ?v1)) f1) (= (f3 ?v0 ?v1) f1))))
(assert (forall ((?v0 S2)) (= (= (f3 (f6 f11 ?v0) f13) f1) (= (f3 ?v0 f13) f1))))
(assert (forall ((?v0 S2)) (= (= (f3 f13 (f6 f11 ?v0)) f1) (= (f3 f13 ?v0) f1))))
(assert (= f4 (f6 f10 f13)))
(assert (forall ((?v0 S2) (?v1 S2)) (= (f6 (f7 f8 (f6 f12 ?v0)) (f6 f11 ?v1)) (f6 f12 (f6 (f7 f8 ?v0) ?v1)))))
(assert (forall ((?v0 S2) (?v1 S2)) (= (f6 (f7 f8 (f6 f11 ?v0)) (f6 f12 ?v1)) (f6 f12 (f6 (f7 f8 ?v0) ?v1)))))
(assert (= (f5 f4 f15) f1))
(assert (= (f3 f4 f15) f1))
(assert (forall ((?v0 S2) (?v1 S2) (?v2 S2)) (let ((?v_0 (f7 f9 ?v2))) (=> (= (f5 ?v0 ?v1) f1) (=> (= (f5 f4 ?v2) f1) (= (f5 (f6 ?v_0 ?v0) (f6 ?v_0 ?v1)) f1))))))
(assert (forall ((?v0 S2) (?v1 S2)) (=> (= (f3 f4 ?v0) f1) (=> (= (f3 f4 ?v1) f1) (= (f3 f4 (f6 (f7 f9 ?v0) ?v1)) f1)))))
(assert (forall ((?v0 S2)) (= (f6 f12 ?v0) (f6 (f7 f8 (f6 (f7 f8 f15) ?v0)) ?v0))))
(assert (forall ((?v0 S2) (?v1 S2)) (=> (= (f3 f4 ?v0) f1) (=> (= (f3 f4 ?v1) f1) (= (f3 f4 (f6 (f7 f8 ?v0) ?v1)) f1)))))
(assert (forall ((?v0 S2)) (not (= (f6 (f7 f8 (f6 (f7 f8 f15) ?v0)) ?v0) f4))))
(assert (forall ((?v0 S2) (?v1 S2) (?v2 S2) (?v3 S2)) (=> (= (f5 ?v0 ?v1) f1) (=> (= (f3 ?v2 ?v3) f1) (= (f5 (f6 (f7 f8 ?v0) ?v2) (f6 (f7 f8 ?v1) ?v3)) f1)))))
(assert (forall ((?v0 S2) (?v1 S2)) (= (= (f5 ?v0 (f6 (f7 f8 ?v1) f15)) f1) (or (= (f5 ?v0 ?v1) f1) (= ?v0 ?v1)))))
(assert (forall ((?v0 S2)) (let ((?v_0 (f6 f10 ?v0))) (= (f6 f10 (f6 f11 ?v0)) (f6 (f7 f8 (f6 (f7 f8 f4) ?v_0)) ?v_0)))))
(assert (forall ((?v0 S2)) (let ((?v_0 (f6 f10 ?v0))) (= (f6 f10 (f6 f12 ?v0)) (f6 (f7 f8 (f6 (f7 f8 f15) ?v_0)) ?v_0)))))
(assert (forall ((?v0 S2)) (= (f6 (f7 f9 (f6 f10 (f6 f12 f13))) ?v0) ?v0)))
(assert (forall ((?v0 S2)) (= (f6 (f7 f9 ?v0) (f6 f10 (f6 f12 f13))) ?v0)))
(assert (= (f6 f10 (f6 f12 f13)) f15))
(assert (= (f6 f10 (f6 f12 f13)) f15))
(assert (forall ((?v0 S2)) (= (= (f3 (f6 f12 ?v0) f13) f1) (= (f5 ?v0 f13) f1))))
(assert (forall ((?v0 S2)) (= (= (f5 f13 (f6 f12 ?v0)) f1) (= (f3 f13 ?v0) f1))))
(assert (forall ((?v0 S2) (?v1 S2)) (= (= (f3 (f6 f12 ?v0) (f6 f11 ?v1)) f1) (= (f5 ?v0 ?v1) f1))))
(assert (forall ((?v0 S2) (?v1 S2)) (= (= (f3 (f6 f12 ?v0) (f6 f11 ?v1)) f1) (= (f5 ?v0 ?v1) f1))))
(assert (forall ((?v0 S2) (?v1 S2)) (= (= (f5 (f6 f11 ?v0) (f6 f12 ?v1)) f1) (= (f3 ?v0 ?v1) f1))))
(assert (forall ((?v0 S2) (?v1 S2)) (= (= (f5 (f6 f11 ?v0) (f6 f12 ?v1)) f1) (= (f3 ?v0 ?v1) f1))))
(assert (= f15 (f6 f10 (f6 f12 f13))))
(assert (forall ((?v0 S2)) (= (= (f3 f15 ?v0) f1) (= (f5 f4 ?v0) f1))))
(check-sat)
(exit)
